experiment/data/lkh-res/Vrp-Set-X-n298/Vrp-Set-X-n298-lkh/0.lkh1.vrp
NAME : 0
COMMENT : CVRP Instance
TYPE : CVRP
DIMENSION : 298
EDGE_WEIGHT_TYPE : EUC_2D
CAPACITY : 55
NODE_COORD_SECTION
1	44000	73200
2	22100	34800
3	11700	54500
4	49300	64500
5	13500	1200
6	77500	99700
7	74500	44400
8	95000	31100
9	53000	15000
10	90000	50800
11	4800	51900
12	26900	21700
13	72200	34900
14	48000	73300
15	97700	42200
16	99900	22000
17	63600	33200
18	85100	16200
19	55900	56700
20	38900	6900
21	52900	83500
22	30300	42700
23	40000	63800
24	89400	90400
25	48200	10900
26	57900	80000
27	18400	8200
28	66900	75300
29	90600	42400
30	37400	69200
31	17400	61300
32	7500	3700
33	3800	56300
34	83800	15700
35	71000	70900
36	17600	6700
37	44900	32600
38	7100	38900
39	71000	11500
40	23700	54700
41	53000	2700
42	63100	22300
43	17100	34200
44	22600	6500
45	600	99800
46	2400	63500
47	66800	16500
48	31800	60800
49	42900	8200
50	21200	23700
51	85300	12600
52	38700	4700
53	67700	14400
54	11100	79000
55	95700	3200
56	51100	64700
57	45700	56100
58	8600	68700
59	29000	45600
60	47300	56300
61	80700	72500
62	46100	46800
63	73900	23500
64	25700	34000
65	58800	54500
66	600	31100
67	26800	97600
68	55200	41400
69	99400	94600
70	45200	53400
71	42200	54500
72	24800	61100
73	4300	36600
74	97700	9600
75	82200	58000
76	94000	65000
77	8600	26300
78	71500	9900
79	66800	98100
80	42400	63800
81	29700	60700
82	25100	28200
83	23700	41300
84	20200	57300
85	18100	38500
86	12600	52800
87	38600	81100
88	97800	84600
89	7000	9900
90	33300	35700
91	4900	87000
92	15700	73400
93	62700	26800
94	81800	43300
95	73800	55500
96	35000	90900
97	33700	92600
98	97800	5900
99	4200	59500
100	87000	93300
101	1900	12000
102	16500	67900
103	13100	98400
104	23200	75500
105	31900	41700
106	18700	37600
107	25100	48200
108	65700	21900
109	20900	39700
110	80000	37700
111	22800	11600
112	56600	55900
113	49000	15600
114	21600	54700
115	96400	67700
116	8500	89700
117	29200	80700
118	60000	89300
119	93800	22200
120	54300	74700
121	57200	97600
122	56900	5900
123	71200	57400
124	97100	51500
125	61600	30600
126	69500	83700
127	42100	82100
128	60400	99500
129	53700	95700
130	100000	65300
131	28200	81700
132	38000	87400
133	77800	10100
134	46200	7400
135	8700	68200
136	44100	22800
137	60800	43000
138	51100	31300
139	71000	30000
140	63000	2400
141	62600	65000
142	53100	71900
143	59800	82400
144	99500	62200
145	25800	98100
146	35800	28100
147	27900	16900
148	28600	26800
149	25900	65900
150	78200	13200
151	86200	51800
152	45700	60300
153	21000	43800
154	4400	4400
155	52700	81800
156	16400	15600
157	2300	8600
158	34200	93000
159	3900	28200
160	26900	84800
161	43600	88600
162	32300	34000
163	23700	89100
164	33300	48800
165	51700	13700
166	59100	97200
167	54100	88800
168	12200	28000
169	15900	65500
170	20000	15800
171	44600	28300
172	10700	31500
173	58800	27000
174	15800	37400
175	2600	35300
176	95900	7600
177	85200	32800
178	92700	73600
179	43700	13800
180	5300	93800
181	33300	19200
182	92200	49900
183	40700	94800
184	97000	66400
185	23700	73800
186	800	56100
187	74700	85200
188	98900	90800
189	10000	86000
190	1000	96000
191	84200	19000
192	59500	71600
193	28600	96500
194	19900	37300
195	15900	6700
196	97900	2500
197	48800	47900
198	80400	62000
199	74200	85300
200	52800	16000
201	22300	34200
202	50300	15900
203	71100	68100
204	33900	34000
205	34200	50900
206	93100	59300
207	76600	95300
208	71000	17200
209	52100	45100
210	17200	15900
211	68500	83600
212	63900	15500
213	76300	65600
214	26900	24100
215	82500	76100
216	33000	17700
217	90100	12400
218	71300	86000
219	61900	92600
220	69200	1900
221	9600	87600
222	94900	17800
223	7900	79500
224	83300	85200
225	33600	44400
226	87700	0
227	29600	59700
228	56600	73500
229	94000	37700
230	34900	26900
231	93900	82700
232	90800	12000
233	5000	74100
234	67000	56900
235	75300	74400
236	57700	35100
237	14100	61600
238	9700	62500
239	6400	87500
240	49600	16000
241	51500	59800
242	34400	80300
243	27400	51000
244	29100	17000
245	80000	30000
246	7400	60900
247	36500	20700
248	79100	39600
249	45300	84800
250	40500	19100
251	39500	29000
252	52500	74300
253	26000	38500
254	40800	83700
255	100	34600
256	23100	50400
257	83700	57200
258	60600	47300
259	90000	72900
260	34600	86800
261	12300	8000
262	47700	16900
263	38300	5900
264	51000	41000
265	89000	10100
266	95200	63500
267	82500	72200
268	6800	59800
269	23400	84100
270	91100	72000
271	17200	36700
272	56900	28900
273	8400	1900
274	69400	91600
275	45400	41200
276	26100	23300
277	69300	37500
278	58800	85400
279	27600	53800
280	59900	56900
281	14200	15800
282	33800	80500
283	32400	19400
284	73900	32500
285	84500	63900
286	63800	18200
287	85800	9300
288	4000	92300
289	3700	59900
290	63800	3900
291	21800	71400
292	56800	67400
293	28800	84000
294	43900	57000
295	32500	80100
296	58700	27800
297	99200	67400
298	59700	60800
DEMAND_SECTION
1	0
2	2
3	9
4	1
5	4
6	9
7	5
8	7
9	2
10	4
11	7
12	2
13	9
14	5
15	10
16	5
17	8
18	5
19	8
20	8
21	6
22	7
23	2
24	1
25	3
26	9
27	1
28	1
29	10
30	3
31	4
32	8
33	10
34	7
35	9
36	6
37	1
38	1
39	9
40	9
41	5
42	9
43	3
44	6
45	4
46	2
47	8
48	3
49	10
50	6
51	9
52	5
53	5
54	7
55	10
56	5
57	8
58	1
59	4
60	4
61	10
62	7
63	8
64	9
65	8
66	1
67	5
68	9
69	8
70	4
71	7
72	5
73	2
74	9
75	1
76	6
77	10
78	10
79	7
80	10
81	6
82	6
83	9
84	2
85	6
86	1
87	9
88	8
89	10
90	3
91	9
92	3
93	8
94	10
95	6
96	10
97	9
98	7
99	7
100	4
101	1
102	3
103	4
104	5
105	10
106	4
107	2
108	9
109	1
110	6
111	4
112	7
113	5
114	1
115	3
116	4
117	4
118	6
119	6
120	9
121	9
122	7
123	9
124	2
125	8
126	10
127	5
128	10
129	3
130	8
131	7
132	6
133	3
134	8
135	8
136	8
137	9
138	9
139	8
140	1
141	1
142	8
143	5
144	4
145	6
146	1
147	10
148	6
149	3
150	1
151	7
152	9
153	4
154	8
155	4
156	7
157	4
158	6
159	2
160	1
161	9
162	6
163	7
164	2
165	8
166	7
167	4
168	5
169	9
170	6
171	1
172	5
173	3
174	4
175	6
176	1
177	9
178	10
179	3
180	4
181	7
182	2
183	10
184	9
185	3
186	7
187	6
188	2
189	9
190	4
191	2
192	3
193	5
194	4
195	8
196	6
197	10
198	6
199	10
200	7
201	8
202	7
203	1
204	8
205	3
206	2
207	5
208	9
209	1
210	1
211	3
212	4
213	10
214	9
215	10
216	8
217	6
218	7
219	7
220	4
221	8
222	3
223	3
224	5
225	1
226	6
227	3
228	4
229	3
230	4
231	1
232	3
233	5
234	7
235	1
236	4
237	3
238	9
239	8
240	8
241	3
242	7
243	2
244	9
245	7
246	8
247	5
248	7
249	2
250	1
251	9
252	7
253	6
254	1
255	1
256	9
257	6
258	4
259	1
260	2
261	2
262	9
263	5
264	5
265	10
266	7
267	2
268	10
269	9
270	4
271	10
272	9
273	3
274	10
275	1
276	7
277	1
278	8
279	10
280	6
281	10
282	2
283	2
284	7
285	5
286	5
287	3
288	4
289	9
290	1
291	6
292	3
293	9
294	8
295	9
296	1
297	10
298	10
DEPOT_SECTION
1
-1
EOF
