experiment/data/lkh-res/Vrp-Set-X-n298/Vrp-Set-X-n298-lkh/0.lkh1.tour
NAME : 0.3463989.tour
COMMENT : Length = 3463989
COMMENT : Found by LKH-3 [Keld Helsgaun] Tue Apr  9 06:03:26 2024
TYPE : TOUR
DIMENSION : 328
TOUR_SECTION
1
14
252
120
155
21
249
161
254
87
303
80
23
279
256
40
227
81
48
306
278
118
219
128
166
121
129
167
320
79
6
207
100
24
69
188
88
231
224
143
328
71
90
204
162
148
214
82
105
326
50
210
156
281
89
261
195
44
111
225
321
26
211
126
218
199
187
274
309
213
198
75
257
151
95
123
234
299
243
107
153
85
174
172
77
168
43
271
106
319
141
10
182
124
15
229
29
94
248
7
4
305
275
37
171
179
25
134
49
52
263
20
250
251
317
31
268
33
186
11
3
86
84
72
308
56
19
112
65
280
298
292
142
301
146
230
247
181
283
216
244
147
12
276
311
242
260
96
97
158
183
132
127
300
203
76
266
184
115
297
130
144
206
285
316
170
27
36
5
273
32
154
157
101
159
66
255
175
73
38
114
318
241
258
137
13
139
245
177
110
327
42
108
286
47
208
63
284
322
136
262
113
240
202
9
200
138
304
150
133
226
55
196
98
176
74
16
8
325
293
160
269
189
239
91
223
54
307
205
164
22
253
64
201
2
194
109
83
59
314
228
28
235
215
178
270
259
267
61
35
192
323
294
57
70
62
197
60
152
315
163
221
116
180
288
190
45
103
145
67
193
324
68
236
17
125
93
173
296
272
264
310
119
222
232
217
265
287
51
34
18
191
277
312
209
212
53
39
78
220
290
140
122
41
165
302
92
233
58
135
46
289
99
246
238
237
313
282
295
117
131
104
185
291
102
169
149
30
-1
EOF
